NAME : N40ft402.dat.9956.tour
COMMENT : Length = 9956
COMMENT : Found by LKH [Keld Helsgaun] Tue May  2 05:19:42 2017
TYPE : TOUR
DIMENSION : 40
TOUR_SECTION
1
5
36
18
34
19
4
12
15
8
24
39
17
31
9
21
37
2
14
40
32
27
13
38
35
6
30
33
3
25
23
26
29
28
22
11
16
20
7
10
-1
EOF
